47
3 23 96 77 
3 6 92 81 
3 12 36 107 
3 1 42 14 
3 95 51 32 
2 116 35 
3 48 109 6 
3 67 11 19 
3 104 38 68 
3 60 49 16 
3 112 90 44 
3 46 62 11 
2 10 66 
2 97 89 
2 28 96 
3 42 108 86 
1 71 
2 97 64 
3 114 87 113 
3 57 46 41 
2 10 22 
2 21 55 
3 13 111 9 
2 27 56 
2 98 102 
3 65 64 4 
3 29 53 33 
3 61 87 120 
3 74 115 14 
2 15 93 
3 88 85 77 
3 117 37 29 
3 26 100 50 
2 101 114 
3 25 99 4 
3 2 22 62 
2 35 24 
3 99 76 24 
2 38 79 
3 84 93 67 
3 70 8 83 
2 1 89 
2 47 52 
2 85 3 
2 20 18 
2 106 91 
2 78 59 
